c ind 10 11 114 119 121 126 128 13 131 136 0
c ind 138 145 15 150 152 163 17 27 29 307 0
c ind 31 311 33 35 37 39 4 41 418 421 0
c ind 424 427 46 48 5 50 52 0
p cnf 427 1385
-1 2 0
-1 302 0
-100 101 0
-100 38 0
-101 102 0
-101 36 0
-102 103 0
-102 34 0
-103 104 0
-103 32 0
-104 69 0
-104 86 0
-105 -106 6 0
-105 106 42 0
-106 107 0
-106 182 0
-107 108 0
-107 176 0
-108 109 0
-108 170 0
-109 110 0
-109 158 0
-11 0
-110 111 0
-110 144 0
-111 112 0
-111 130 0
-112 113 0
-112 120 0
-113 -114 115 0
-113 -115 114 0
-115 -116 -11 0
-115 116 11 0
-116 -117 -119 0
-116 117 119 0
-117 -118 -11 0
-117 118 11 0
-118 -11 -11 0
-118 11 11 0
-12 -11 13 0
-12 -13 11 0
-120 -121 122 0
-120 -122 121 0
-122 -123 -129 0
-122 123 129 0
-123 -124 -128 0
-123 124 128 0
-124 -125 -127 0
-124 125 127 0
-125 -11 -126 0
-125 11 126 0
-127 11 0
-129 117 0
-129 119 0
-130 -131 132 0
-130 -132 131 0
-132 -133 -139 0
-132 133 139 0
-133 -134 -138 0
-133 134 138 0
-134 -135 -137 0
-134 135 137 0
-135 -11 -136 0
-135 11 136 0
-137 126 0
-137 127 0
-139 140 143 0
-14 -11 15 0
-14 -15 11 0
-140 141 142 0
-141 124 0
-141 128 0
-142 128 0
-142 129 0
-143 124 0
-143 129 0
-144 -145 146 0
-144 -146 145 0
-146 -147 -153 0
-146 147 153 0
-147 -148 -152 0
-147 148 152 0
-148 -149 -151 0
-148 149 151 0
-149 -11 -150 0
-149 11 150 0
-151 136 0
-151 137 0
-153 154 157 0
-154 155 156 0
-155 134 0
-155 138 0
-156 138 0
-156 139 0
-157 134 0
-157 139 0
-158 -11 159 0
-158 -159 11 0
-159 -160 -165 0
-159 160 165 0
-16 -11 17 0
-16 -17 11 0
-160 -161 -11 0
-160 161 11 0
-161 -162 -164 0
-161 162 164 0
-162 -11 -163 0
-162 11 163 0
-164 150 0
-164 151 0
-165 166 169 0
-166 167 168 0
-167 148 0
-167 152 0
-168 152 0
-168 153 0
-169 148 0
-169 153 0
-170 -11 171 0
-170 -171 11 0
-171 -172 -175 0
-171 172 175 0
-172 -173 -11 0
-172 173 11 0
-173 -118 -174 0
-173 118 174 0
-174 163 0
-174 164 0
-175 161 0
-175 165 0
-176 -11 177 0
-176 -177 11 0
-177 -178 -181 0
-177 178 181 0
-178 -179 -11 0
-178 179 11 0
-179 -118 -180 0
-179 118 180 0
-18 -19 42 0
-18 19 53 0
-180 11 0
-180 174 0
-181 173 0
-181 175 0
-182 -11 183 0
-182 -183 11 0
-183 -184 -187 0
-183 184 187 0
-184 -185 -11 0
-184 185 11 0
-185 -118 -186 0
-185 118 186 0
-186 11 0
-186 180 0
-187 179 0
-187 181 0
-188 -189 42 0
-188 189 195 0
-189 190 0
-189 40 0
-19 20 0
-19 40 0
-190 191 0
-190 38 0
-191 192 0
-191 36 0
-192 193 0
-192 34 0
-193 194 0
-193 32 0
-194 78 0
-194 86 0
-195 -196 42 0
-195 196 202 0
-196 197 0
-196 40 0
-197 198 0
-197 38 0
-198 199 0
-198 36 0
-199 200 0
-199 34 0
-2 -3 6 0
-2 3 18 0
-20 21 0
-20 38 0
-200 201 0
-200 24 0
-201 -33 5 0
-201 -5 33 0
-202 -203 42 0
-202 203 208 0
-203 204 0
-203 40 0
-204 205 0
-204 38 0
-205 206 0
-205 36 0
-206 207 0
-206 34 0
-207 201 0
-207 59 0
-208 -209 42 0
-208 209 214 0
-209 210 0
-209 40 0
-21 22 0
-21 36 0
-210 211 0
-210 38 0
-211 212 0
-211 36 0
-212 213 0
-212 23 0
-213 -35 5 0
-213 -5 35 0
-214 -215 94 0
-214 215 219 0
-215 216 0
-215 40 0
-216 217 0
-216 38 0
-217 218 0
-217 36 0
-218 213 0
-218 58 0
-219 -220 224 0
-219 220 232 0
-22 23 0
-22 34 0
-220 221 0
-220 40 0
-221 222 0
-221 38 0
-222 223 0
-222 36 0
-223 213 0
-223 67 0
-224 -225 6 0
-224 225 42 0
-225 226 0
-225 231 0
-226 227 0
-226 230 0
-227 228 0
-227 229 0
-228 -11 114 0
-228 -114 11 0
-229 -11 121 0
-229 -121 11 0
-23 24 0
-23 32 0
-230 -11 131 0
-230 -131 11 0
-231 -11 145 0
-231 -145 11 0
-232 -233 42 0
-232 233 237 0
-233 234 0
-233 40 0
-234 235 0
-234 38 0
-235 236 0
-235 36 0
-236 213 0
-236 76 0
-237 -238 94 0
-237 238 242 0
-238 239 0
-238 40 0
-239 240 0
-239 38 0
-24 25 0
-24 30 0
-240 241 0
-240 36 0
-241 213 0
-241 84 0
-242 -243 224 0
-242 243 247 0
-243 244 0
-243 40 0
-244 245 0
-244 38 0
-245 246 0
-245 36 0
-246 213 0
-246 92 0
-247 -248 42 0
-247 248 252 0
-248 249 0
-248 40 0
-249 250 0
-249 38 0
-25 26 0
-25 28 0
-250 251 0
-250 36 0
-251 103 0
-251 213 0
-252 -253 42 0
-252 253 257 0
-253 254 0
-253 40 0
-254 255 0
-254 38 0
-255 256 0
-255 36 0
-256 193 0
-256 213 0
-257 -258 42 0
-257 258 262 0
-258 259 0
-258 40 0
-259 260 0
-259 38 0
-26 -11 27 0
-26 -27 11 0
-260 261 0
-260 36 0
-261 200 0
-261 213 0
-262 -263 94 0
-262 263 267 0
-263 264 0
-263 40 0
-264 265 0
-264 38 0
-265 266 0
-265 36 0
-266 207 0
-266 213 0
-267 -268 224 0
-267 268 272 0
-268 269 0
-268 40 0
-269 270 0
-269 38 0
-270 22 0
-270 271 0
-271 -37 5 0
-271 -5 37 0
-272 -273 276 0
-272 273 285 0
-273 274 0
-273 40 0
-274 275 0
-274 38 0
-275 271 0
-275 57 0
-276 -225 277 0
-276 225 42 0
-277 -278 42 0
-277 278 94 0
-278 279 0
-278 284 0
-279 280 0
-279 283 0
-28 -11 29 0
-28 -29 11 0
-280 281 0
-280 282 0
-281 -119 126 0
-281 -126 119 0
-282 -128 136 0
-282 -136 128 0
-283 -138 150 0
-283 -150 138 0
-284 -152 163 0
-284 -163 152 0
-285 -286 224 0
-285 286 289 0
-286 287 0
-286 40 0
-287 288 0
-287 38 0
-288 271 0
-288 66 0
-289 -290 293 0
-289 290 294 0
-290 291 0
-290 40 0
-291 292 0
-291 38 0
-292 271 0
-292 75 0
-293 -225 94 0
-293 225 42 0
-294 -295 293 0
-294 295 298 0
-295 296 0
-295 40 0
-296 297 0
-296 38 0
-297 271 0
-297 83 0
-298 -299 224 0
-298 299 42 0
-299 300 0
-299 40 0
-3 -4 5 0
-3 -5 4 0
-30 -11 31 0
-30 -31 11 0
-300 301 0
-300 38 0
-301 271 0
-301 91 0
-302 -3 303 0
-302 3 309 0
-303 304 0
-303 308 0
-304 305 0
-304 308 0
-305 306 0
-305 308 0
-306 -11 307 0
-306 -307 11 0
-308 -11 11 0
-309 -19 310 0
-309 19 312 0
-310 -307 311 0
-310 -311 307 0
-312 -54 303 0
-312 54 313 0
-313 -63 310 0
-313 63 314 0
-314 -72 310 0
-314 72 315 0
-315 -80 310 0
-315 80 316 0
-316 -88 310 0
-316 88 317 0
-317 -99 310 0
-317 99 318 0
-318 -189 310 0
-318 189 319 0
-319 -196 310 0
-319 196 320 0
-32 -11 33 0
-32 -33 11 0
-320 -203 310 0
-320 203 321 0
-321 -209 322 0
-321 209 310 0
-322 -323 415 0
-322 323 416 0
-323 324 0
-323 403 0
-324 325 0
-324 391 0
-325 326 0
-325 379 0
-326 327 0
-326 366 0
-327 328 0
-327 353 0
-328 329 0
-328 340 0
-329 330 0
-329 333 0
-330 -114 331 0
-330 -331 114 0
-331 -332 -11 0
-331 332 11 0
-332 -117 -117 0
-332 117 117 0
-333 -121 334 0
-333 -334 121 0
-334 -335 -339 0
-334 335 339 0
-335 -336 -337 0
-335 336 337 0
-336 -118 -127 0
-336 118 127 0
-337 -338 -127 0
-337 338 127 0
-338 -11 -119 0
-338 11 119 0
-339 117 0
-34 -11 35 0
-34 -35 11 0
-340 -131 341 0
-340 -341 131 0
-341 -342 -348 0
-341 342 348 0
-342 -343 -345 0
-342 343 345 0
-343 -125 -344 0
-343 125 344 0
-344 11 0
-344 127 0
-345 -346 -347 0
-345 346 347 0
-346 -11 -128 0
-346 11 128 0
-347 119 0
-347 127 0
-348 349 352 0
-349 350 351 0
-350 336 0
-350 337 0
-351 337 0
-351 339 0
-352 336 0
-352 339 0
-353 -145 354 0
-353 -354 145 0
-354 -355 -361 0
-354 355 361 0
-355 -356 -358 0
-355 356 358 0
-356 -135 -357 0
-356 135 357 0
-357 126 0
-357 344 0
-358 -359 -360 0
-358 359 360 0
-359 -11 -138 0
-359 11 138 0
-36 -11 37 0
-36 -37 11 0
-360 128 0
-360 347 0
-361 362 365 0
-362 363 364 0
-363 343 0
-363 345 0
-364 345 0
-364 348 0
-365 343 0
-365 348 0
-366 -11 367 0
-366 -367 11 0
-367 -368 -374 0
-367 368 374 0
-368 -369 -371 0
-368 369 371 0
-369 -149 -370 0
-369 149 370 0
-370 136 0
-370 357 0
-371 -372 -373 0
-371 372 373 0
-372 -11 -152 0
-372 11 152 0
-373 138 0
-373 360 0
-374 375 378 0
-375 376 377 0
-376 356 0
-376 358 0
-377 358 0
-377 361 0
-378 356 0
-378 361 0
-379 -11 380 0
-379 -380 11 0
-38 -11 39 0
-38 -39 11 0
-380 -381 -386 0
-380 381 386 0
-381 -382 -384 0
-381 382 384 0
-382 -162 -383 0
-382 162 383 0
-383 150 0
-383 370 0
-384 -118 -385 0
-384 118 385 0
-385 152 0
-385 373 0
-386 387 390 0
-387 388 389 0
-388 369 0
-388 371 0
-389 371 0
-389 374 0
-390 369 0
-390 374 0
-391 -11 392 0
-391 -392 11 0
-392 -393 -398 0
-392 393 398 0
-393 -394 -396 0
-393 394 396 0
-394 -118 -395 0
-394 118 395 0
-395 163 0
-395 383 0
-396 -118 -397 0
-396 118 397 0
-397 11 0
-397 385 0
-398 399 402 0
-399 400 401 0
-40 -11 41 0
-40 -41 11 0
-400 382 0
-400 384 0
-401 384 0
-401 386 0
-402 382 0
-402 386 0
-403 -11 404 0
-403 -404 11 0
-404 -405 -410 0
-404 405 410 0
-405 -406 -408 0
-405 406 408 0
-406 -118 -407 0
-406 118 407 0
-407 11 0
-407 395 0
-408 -118 -409 0
-408 118 409 0
-409 11 0
-409 397 0
-410 411 414 0
-411 412 413 0
-412 394 0
-412 396 0
-413 396 0
-413 398 0
-414 394 0
-414 398 0
-415 -307 5 0
-415 -5 307 0
-416 -417 415 0
-416 417 419 0
-417 -418 5 0
-417 -5 418 0
-419 -420 415 0
-419 420 422 0
-42 43 0
-42 51 0
-420 -421 5 0
-420 -5 421 0
-422 -423 415 0
-422 423 425 0
-423 -424 5 0
-423 -5 424 0
-425 -426 415 0
-425 426 310 0
-426 -427 5 0
-426 -5 427 0
-43 44 0
-43 49 0
-44 45 0
-44 47 0
-45 -10 46 0
-45 -46 10 0
-47 -13 48 0
-47 -48 13 0
-49 -15 50 0
-49 -50 15 0
-51 -17 52 0
-51 -52 17 0
-53 -54 6 0
-53 54 62 0
-54 40 0
-54 55 0
-55 38 0
-55 56 0
-56 36 0
-56 57 0
-57 34 0
-57 58 0
-58 32 0
-58 59 0
-59 30 0
-59 60 0
-6 16 0
-6 7 0
-60 28 0
-60 61 0
-61 -27 5 0
-61 -5 27 0
-62 -63 42 0
-62 63 71 0
-63 40 0
-63 64 0
-64 38 0
-64 65 0
-65 36 0
-65 66 0
-66 34 0
-66 67 0
-67 32 0
-67 68 0
-68 30 0
-68 69 0
-69 26 0
-69 70 0
-7 14 0
-7 8 0
-70 -29 5 0
-70 -5 29 0
-71 -72 42 0
-71 72 79 0
-72 40 0
-72 73 0
-73 38 0
-73 74 0
-74 36 0
-74 75 0
-75 34 0
-75 76 0
-76 32 0
-76 77 0
-77 30 0
-77 78 0
-78 61 0
-78 70 0
-79 -80 42 0
-79 80 87 0
-8 12 0
-8 9 0
-80 40 0
-80 81 0
-81 38 0
-81 82 0
-82 36 0
-82 83 0
-83 34 0
-83 84 0
-84 32 0
-84 85 0
-85 25 0
-85 86 0
-86 -31 5 0
-86 -5 31 0
-87 -88 94 0
-87 88 98 0
-88 40 0
-88 89 0
-89 38 0
-89 90 0
-9 -10 11 0
-9 -11 10 0
-90 36 0
-90 91 0
-91 34 0
-91 92 0
-92 32 0
-92 93 0
-93 60 0
-93 86 0
-94 16 0
-94 95 0
-95 14 0
-95 96 0
-96 12 0
-96 97 0
-97 -10 5 0
-97 -5 10 0
-98 -99 105 0
-98 99 188 0
-99 100 0
-99 40 0
1 -2 -302 0
1 0
100 -101 -38 0
101 -102 -36 0
102 -103 -34 0
103 -104 -32 0
104 -69 -86 0
105 -106 -6 0
105 -6 -42 0
105 106 -42 0
106 -107 -182 0
107 -108 -176 0
108 -109 -170 0
109 -110 -158 0
110 -111 -144 0
111 -112 -130 0
112 -113 -120 0
113 -114 -115 0
113 114 115 0
115 -11 116 0
115 -116 11 0
116 -117 119 0
116 -119 117 0
117 -11 118 0
117 -118 11 0
118 -11 11 0
12 -13 -11 0
12 13 11 0
120 -121 -122 0
120 121 122 0
122 -123 129 0
122 -129 123 0
123 -124 128 0
123 -128 124 0
124 -125 127 0
124 -127 125 0
125 -11 126 0
125 -126 11 0
127 -11 -11 0
129 -117 -119 0
130 -131 -132 0
130 131 132 0
132 -133 139 0
132 -139 133 0
133 -134 138 0
133 -138 134 0
134 -135 137 0
134 -137 135 0
135 -11 136 0
135 -136 11 0
137 -126 -127 0
139 -140 0
139 -143 0
14 -15 -11 0
14 15 11 0
140 -141 0
140 -142 0
141 -124 -128 0
142 -128 -129 0
143 -124 -129 0
144 -145 -146 0
144 145 146 0
146 -147 153 0
146 -153 147 0
147 -148 152 0
147 -152 148 0
148 -149 151 0
148 -151 149 0
149 -11 150 0
149 -150 11 0
151 -136 -137 0
153 -154 0
153 -157 0
154 -155 0
154 -156 0
155 -134 -138 0
156 -138 -139 0
157 -134 -139 0
158 -11 -159 0
158 11 159 0
159 -160 165 0
159 -165 160 0
16 -17 -11 0
16 17 11 0
160 -11 161 0
160 -161 11 0
161 -162 164 0
161 -164 162 0
162 -11 163 0
162 -163 11 0
164 -150 -151 0
165 -166 0
165 -169 0
166 -167 0
166 -168 0
167 -148 -152 0
168 -152 -153 0
169 -148 -153 0
170 -11 -171 0
170 11 171 0
171 -172 175 0
171 -175 172 0
172 -11 173 0
172 -173 11 0
173 -118 174 0
173 -174 118 0
174 -163 -164 0
175 -161 -165 0
176 -11 -177 0
176 11 177 0
177 -178 181 0
177 -181 178 0
178 -11 179 0
178 -179 11 0
179 -118 180 0
179 -180 118 0
18 -19 -42 0
18 -42 -53 0
18 19 -53 0
180 -11 -174 0
181 -173 -175 0
182 -11 -183 0
182 11 183 0
183 -184 187 0
183 -187 184 0
184 -11 185 0
184 -185 11 0
185 -118 186 0
185 -186 118 0
186 -11 -180 0
187 -179 -181 0
188 -189 -42 0
188 -42 -195 0
188 189 -195 0
189 -190 -40 0
19 -20 -40 0
190 -191 -38 0
191 -192 -36 0
192 -193 -34 0
193 -194 -32 0
194 -78 -86 0
195 -196 -42 0
195 -42 -202 0
195 196 -202 0
196 -197 -40 0
197 -198 -38 0
198 -199 -36 0
199 -200 -34 0
2 -3 -6 0
2 -6 -18 0
2 3 -18 0
20 -21 -38 0
200 -24 -201 0
201 -33 -5 0
201 33 5 0
202 -203 -42 0
202 -42 -208 0
202 203 -208 0
203 -204 -40 0
204 -205 -38 0
205 -206 -36 0
206 -207 -34 0
207 -59 -201 0
208 -209 -42 0
208 -42 -214 0
208 209 -214 0
209 -210 -40 0
21 -22 -36 0
210 -211 -38 0
211 -212 -36 0
212 -23 -213 0
213 -35 -5 0
213 35 5 0
214 -215 -94 0
214 -94 -219 0
214 215 -219 0
215 -216 -40 0
216 -217 -38 0
217 -218 -36 0
218 -58 -213 0
219 -220 -224 0
219 -224 -232 0
219 220 -232 0
22 -23 -34 0
220 -221 -40 0
221 -222 -38 0
222 -223 -36 0
223 -67 -213 0
224 -225 -6 0
224 -6 -42 0
224 225 -42 0
225 -226 -231 0
226 -227 -230 0
227 -228 -229 0
228 -114 -11 0
228 114 11 0
229 -121 -11 0
229 121 11 0
23 -24 -32 0
230 -131 -11 0
230 131 11 0
231 -145 -11 0
231 145 11 0
232 -233 -42 0
232 -42 -237 0
232 233 -237 0
233 -234 -40 0
234 -235 -38 0
235 -236 -36 0
236 -76 -213 0
237 -238 -94 0
237 -94 -242 0
237 238 -242 0
238 -239 -40 0
239 -240 -38 0
24 -25 -30 0
240 -241 -36 0
241 -84 -213 0
242 -224 -247 0
242 -243 -224 0
242 243 -247 0
243 -244 -40 0
244 -245 -38 0
245 -246 -36 0
246 -92 -213 0
247 -248 -42 0
247 -42 -252 0
247 248 -252 0
248 -249 -40 0
249 -250 -38 0
25 -26 -28 0
250 -251 -36 0
251 -103 -213 0
252 -253 -42 0
252 -42 -257 0
252 253 -257 0
253 -254 -40 0
254 -255 -38 0
255 -256 -36 0
256 -193 -213 0
257 -258 -42 0
257 -42 -262 0
257 258 -262 0
258 -259 -40 0
259 -260 -38 0
26 -27 -11 0
26 27 11 0
260 -261 -36 0
261 -200 -213 0
262 -263 -94 0
262 -94 -267 0
262 263 -267 0
263 -264 -40 0
264 -265 -38 0
265 -266 -36 0
266 -207 -213 0
267 -224 -272 0
267 -268 -224 0
267 268 -272 0
268 -269 -40 0
269 -270 -38 0
270 -22 -271 0
271 -37 -5 0
271 37 5 0
272 -273 -276 0
272 -276 -285 0
272 273 -285 0
273 -274 -40 0
274 -275 -38 0
275 -57 -271 0
276 -225 -277 0
276 -277 -42 0
276 225 -42 0
277 -278 -42 0
277 -42 -94 0
277 278 -94 0
278 -279 -284 0
279 -280 -283 0
28 -29 -11 0
28 29 11 0
280 -281 -282 0
281 -119 -126 0
281 119 126 0
282 -128 -136 0
282 128 136 0
283 -138 -150 0
283 138 150 0
284 -152 -163 0
284 152 163 0
285 -224 -289 0
285 -286 -224 0
285 286 -289 0
286 -287 -40 0
287 -288 -38 0
288 -66 -271 0
289 -290 -293 0
289 -293 -294 0
289 290 -294 0
290 -291 -40 0
291 -292 -38 0
292 -75 -271 0
293 -225 -94 0
293 -94 -42 0
293 225 -42 0
294 -293 -298 0
294 -295 -293 0
294 295 -298 0
295 -296 -40 0
296 -297 -38 0
297 -83 -271 0
298 -224 -42 0
298 -299 -224 0
298 299 -42 0
299 -300 -40 0
3 -4 -5 0
3 4 5 0
30 -31 -11 0
30 31 11 0
300 -301 -38 0
301 -91 -271 0
302 -3 -303 0
302 -303 -309 0
302 3 -309 0
303 -304 -308 0
304 -305 -308 0
305 -306 -308 0
306 -307 -11 0
306 307 11 0
308 -11 -11 0
308 11 11 0
309 -19 -310 0
309 -310 -312 0
309 19 -312 0
310 -307 -311 0
310 307 311 0
312 -303 -313 0
312 -54 -303 0
312 54 -313 0
313 -310 -314 0
313 -63 -310 0
313 63 -314 0
314 -310 -315 0
314 -72 -310 0
314 72 -315 0
315 -310 -316 0
315 -80 -310 0
315 80 -316 0
316 -310 -317 0
316 -88 -310 0
316 88 -317 0
317 -310 -318 0
317 -99 -310 0
317 99 -318 0
318 -189 -310 0
318 -310 -319 0
318 189 -319 0
319 -196 -310 0
319 -310 -320 0
319 196 -320 0
32 -33 -11 0
32 33 11 0
320 -203 -310 0
320 -310 -321 0
320 203 -321 0
321 -209 -322 0
321 -322 -310 0
321 209 -310 0
322 -323 -415 0
322 -415 -416 0
322 323 -416 0
323 -324 -403 0
324 -325 -391 0
325 -326 -379 0
326 -327 -366 0
327 -328 -353 0
328 -329 -340 0
329 -330 -333 0
330 -114 -331 0
330 114 331 0
331 -11 332 0
331 -332 11 0
332 -117 117 0
333 -121 -334 0
333 121 334 0
334 -335 339 0
334 -339 335 0
335 -336 337 0
335 -337 336 0
336 -118 127 0
336 -127 118 0
337 -127 338 0
337 -338 127 0
338 -11 119 0
338 -119 11 0
339 -117 -117 0
34 -35 -11 0
34 35 11 0
340 -131 -341 0
340 131 341 0
341 -342 348 0
341 -348 342 0
342 -343 345 0
342 -345 343 0
343 -125 344 0
343 -344 125 0
344 -11 -127 0
345 -346 347 0
345 -347 346 0
346 -11 128 0
346 -128 11 0
347 -119 -127 0
348 -349 0
348 -352 0
349 -350 0
349 -351 0
350 -336 -337 0
351 -337 -339 0
352 -336 -339 0
353 -145 -354 0
353 145 354 0
354 -355 361 0
354 -361 355 0
355 -356 358 0
355 -358 356 0
356 -135 357 0
356 -357 135 0
357 -126 -344 0
358 -359 360 0
358 -360 359 0
359 -11 138 0
359 -138 11 0
36 -37 -11 0
36 37 11 0
360 -128 -347 0
361 -362 0
361 -365 0
362 -363 0
362 -364 0
363 -343 -345 0
364 -345 -348 0
365 -343 -348 0
366 -11 -367 0
366 11 367 0
367 -368 374 0
367 -374 368 0
368 -369 371 0
368 -371 369 0
369 -149 370 0
369 -370 149 0
370 -136 -357 0
371 -372 373 0
371 -373 372 0
372 -11 152 0
372 -152 11 0
373 -138 -360 0
374 -375 0
374 -378 0
375 -376 0
375 -377 0
376 -356 -358 0
377 -358 -361 0
378 -356 -361 0
379 -11 -380 0
379 11 380 0
38 -39 -11 0
38 39 11 0
380 -381 386 0
380 -386 381 0
381 -382 384 0
381 -384 382 0
382 -162 383 0
382 -383 162 0
383 -150 -370 0
384 -118 385 0
384 -385 118 0
385 -152 -373 0
386 -387 0
386 -390 0
387 -388 0
387 -389 0
388 -369 -371 0
389 -371 -374 0
390 -369 -374 0
391 -11 -392 0
391 11 392 0
392 -393 398 0
392 -398 393 0
393 -394 396 0
393 -396 394 0
394 -118 395 0
394 -395 118 0
395 -163 -383 0
396 -118 397 0
396 -397 118 0
397 -11 -385 0
398 -399 0
398 -402 0
399 -400 0
399 -401 0
40 -41 -11 0
40 41 11 0
400 -382 -384 0
401 -384 -386 0
402 -382 -386 0
403 -11 -404 0
403 11 404 0
404 -405 410 0
404 -410 405 0
405 -406 408 0
405 -408 406 0
406 -118 407 0
406 -407 118 0
407 -11 -395 0
408 -118 409 0
408 -409 118 0
409 -11 -397 0
410 -411 0
410 -414 0
411 -412 0
411 -413 0
412 -394 -396 0
413 -396 -398 0
414 -394 -398 0
415 -307 -5 0
415 307 5 0
416 -415 -419 0
416 -417 -415 0
416 417 -419 0
417 -418 -5 0
417 418 5 0
419 -415 -422 0
419 -420 -415 0
419 420 -422 0
42 -43 -51 0
420 -421 -5 0
420 421 5 0
422 -415 -425 0
422 -423 -415 0
422 423 -425 0
423 -424 -5 0
423 424 5 0
425 -415 -310 0
425 -426 -415 0
425 426 -310 0
426 -427 -5 0
426 427 5 0
43 -44 -49 0
44 -45 -47 0
45 -10 -46 0
45 10 46 0
47 -13 -48 0
47 13 48 0
49 -15 -50 0
49 15 50 0
5 0
51 -17 -52 0
51 17 52 0
53 -54 -6 0
53 -6 -62 0
53 54 -62 0
54 -55 -40 0
55 -56 -38 0
56 -57 -36 0
57 -58 -34 0
58 -59 -32 0
59 -60 -30 0
6 -7 -16 0
60 -61 -28 0
61 -27 -5 0
61 27 5 0
62 -42 -71 0
62 -63 -42 0
62 63 -71 0
63 -64 -40 0
64 -65 -38 0
65 -66 -36 0
66 -67 -34 0
67 -68 -32 0
68 -69 -30 0
69 -26 -70 0
7 -8 -14 0
70 -29 -5 0
70 29 5 0
71 -42 -79 0
71 -72 -42 0
71 72 -79 0
72 -73 -40 0
73 -74 -38 0
74 -75 -36 0
75 -76 -34 0
76 -77 -32 0
77 -78 -30 0
78 -61 -70 0
79 -42 -87 0
79 -80 -42 0
79 80 -87 0
8 -9 -12 0
80 -81 -40 0
81 -82 -38 0
82 -83 -36 0
83 -84 -34 0
84 -85 -32 0
85 -25 -86 0
86 -31 -5 0
86 31 5 0
87 -88 -94 0
87 -94 -98 0
87 88 -98 0
88 -89 -40 0
89 -90 -38 0
9 -10 -11 0
9 10 11 0
90 -91 -36 0
91 -92 -34 0
92 -93 -32 0
93 -60 -86 0
94 -95 -16 0
95 -96 -14 0
96 -97 -12 0
97 -10 -5 0
97 10 5 0
98 -105 -188 0
98 -99 -105 0
98 99 -188 0
99 -100 -40 0
